
-4.94
-4.82
-4.66
-4.52
-4.4
-4.36
-4.32
-4.2
-4.18
-4.12
-4.06
-4.04
-4.02
-3.98
-3.92
-3.88
-3.88
-3.86
-3.76
-3.76
-3.76
-3.76
-3.76
-3.74
-3.74
-3.74
-3.72
-3.72
-3.72
-3.72
-3.72
-3.72
-3.72
-3.72
-3.72
-3.72